This is Ipopt version 3.14.4, running with linear solver MUMPS 5.4.1.

Number of nonzeros in equality constraint Jacobian...:    19061
Number of nonzeros in inequality constraint Jacobian.:     5912
Number of nonzeros in Lagrangian Hessian.............:        0

Total number of variables............................:     6568
                     variables with only lower bounds:     1517
                variables with lower and upper bounds:        0
                     variables with only upper bounds:        0
Total number of equality constraints.................:     5217
Total number of inequality constraints...............:     1796
        inequality constraints with only lower bounds:        0
   inequality constraints with lower and upper bounds:        0
        inequality constraints with only upper bounds:     1796

iter    objective    inf_pr   inf_du lg(mu)  ||d||  lg(rg) alpha_du alpha_pr  ls
   0  4.5910011e+02 6.84e+00 2.98e+00   0.0 0.00e+00    -  0.00e+00 0.00e+00   0
   1  6.6322629e+02 6.34e+00 1.36e+01  -0.6 4.30e+00    -  2.02e-02 7.28e-02f  1
   2  6.6548263e+02 6.33e+00 5.60e+02  -0.4 3.40e+00    -  8.62e-02 7.85e-04f  1
   3r 6.6548263e+02 6.33e+00 9.99e+02   0.2 0.00e+00    -  0.00e+00 4.91e-07R  5
   4r 2.2166052e+03 6.59e+00 9.98e+02   1.6 7.36e+02    -  1.34e-03 1.38e-03f  1
   5r 4.7992104e+03 7.16e+00 9.94e+02   1.3 1.47e+02    -  6.76e-03 3.39e-03f  1
   6r 6.7320001e+03 6.40e+00 9.88e+02   0.4 1.90e+02    -  1.14e-02 5.64e-03f  1
   7  6.7514273e+03 6.39e+00 1.05e+04   0.4 4.27e+00    -  1.00e+00 1.81e-03f  1
   8  6.7514700e+03 6.39e+00 8.89e+07   0.7 3.94e+00    -  1.54e-01 1.81e-05h  1
   9r 6.7514700e+03 6.39e+00 1.00e+03   0.5 0.00e+00    -  0.00e+00 9.04e-08R  2
iter    objective    inf_pr   inf_du lg(mu)  ||d||  lg(rg) alpha_du alpha_pr  ls
  10r 7.2353864e+03 5.18e+00 9.95e+02   0.7 1.83e+02    -  1.47e-02 4.97e-03f  1
  11  7.2322884e+03 5.18e+00 3.49e+03  -0.3 6.81e+00    -  1.30e-01 1.86e-04h  1
  12r 7.2322884e+03 5.18e+00 1.00e+03  -0.0 0.00e+00    -  0.00e+00 4.66e-07R  3
  13r 9.2289072e+03 2.66e+00 9.94e+02  -0.1 1.02e+02    -  4.82e-03 6.48e-03f  1
  14  9.2278817e+03 2.66e+00 2.98e+03  -0.7 3.34e+00    -  5.17e-02 4.29e-05h  1
  15r 9.2278817e+03 2.66e+00 1.00e+03   0.2 0.00e+00    -  0.00e+00 2.14e-07R  2
  16r 1.0930568e+04 6.73e-01 9.95e+02   1.0 1.03e+02    -  1.20e-02 4.62e-03f  1
  17  1.0963134e+04 6.73e-01 6.45e+04   1.0 1.60e+01    -  2.61e-01 3.47e-04f  1
  18r 1.0963134e+04 6.73e-01 1.00e+03   0.1 0.00e+00    -  0.00e+00 4.33e-07R  4
  19r 1.1842482e+04 1.74e-01 9.83e+02   0.9 1.61e+01    -  9.33e-02 1.19e-02f  1
iter    objective    inf_pr   inf_du lg(mu)  ||d||  lg(rg) alpha_du alpha_pr  ls
  20r 1.9340813e+04 1.26e-01 8.88e+02   1.0 9.54e+00    -  1.09e-01 9.59e-02f  1
  21r 2.5815027e+04 1.26e-01 7.94e+02   0.9 4.35e+00    -  1.77e-01 1.02e-01f  1
  22r 3.4142078e+04 1.26e-01 6.66e+02   0.7 2.84e+00    -  2.58e-01 1.58e-01f  1
  23r 3.5867906e+04 1.26e-01 5.39e+02   0.0 1.01e+00    -  4.02e-01 1.97e-01f  1
  24r 4.5415937e+04 1.26e-01 4.31e+02   0.5 2.54e+00    -  5.90e-01 2.04e-01f  1
  25r 4.6402066e+04 1.26e-01 2.18e+02  -0.2 6.85e-01    -  9.94e-01 5.72e-01f  1
  26r 4.8578107e+04 1.26e-01 6.43e-01  -0.5 1.03e+00    -  1.00e+00 1.00e+00f  1
  27r 4.1734935e+04 1.26e-01 1.71e+01  -4.0 8.52e-01    -  4.59e-01 3.90e-01f  1
  28r 4.1547172e+04 1.26e-01 5.36e+02  -1.4 1.74e+00    -  7.44e-01 3.96e-02f  1
  29r 3.5107847e+04 1.26e-01 1.66e+02  -1.9 9.64e-01    -  1.00e+00 7.73e-01f  1
iter    objective    inf_pr   inf_du lg(mu)  ||d||  lg(rg) alpha_du alpha_pr  ls
  30r 3.1992464e+04 1.26e-01 1.89e+01  -2.5 2.01e-01    -  1.00e+00 9.28e-01f  1
  31r 3.0765791e+04 1.26e-01 1.23e+00  -2.5 8.73e-01    -  1.00e+00 9.80e-01f  1
  32r 2.6631274e+04 1.26e-01 1.47e+00  -2.9 3.74e-01    -  9.98e-01 8.48e-01f  1
  33r 2.8185224e+04 1.26e-01 3.99e+00  -2.5 5.55e-01    -  1.00e+00 7.72e-01f  1
  34r 2.3651918e+04 1.26e-01 1.71e-02  -2.7 4.08e-01    -  1.00e+00 1.00e+00f  1
  35r 2.0879664e+04 1.26e-01 4.69e+00  -3.2 5.19e-01    -  6.25e-01 1.00e+00f  1
  36r 1.9566146e+04 1.26e-01 1.04e-02  -3.5 4.25e-01    -  1.00e+00 1.00e+00f  1
  37r 1.7995811e+04 1.26e-01 2.26e-01  -4.0 4.53e-01    -  1.00e+00 9.80e-01f  1

Number of Iterations....: 37

                                   (scaled)                 (unscaled)
Objective...............:   6.8876512351919928e+03    1.8132442705967271e+04
Dual infeasibility......:   2.1592831631853159e+02    5.6845326375365073e+02
Constraint violation....:   1.2597999000000001e-01    1.2597999000000001e-01
Variable bound violation:   0.0000000000000000e+00    0.0000000000000000e+00
Complementarity.........:   1.2992179215901299e-04    3.4203233760488500e-04
Overall NLP error.......:   2.1592831631853159e+02    5.6845326375365073e+02


Number of objective function evaluations             = 55
Number of objective gradient evaluations             = 18
Number of equality constraint evaluations            = 55
Number of inequality constraint evaluations          = 55
Number of equality constraint Jacobian evaluations   = 44
Number of inequality constraint Jacobian evaluations = 44
Number of Lagrangian Hessian evaluations             = 0
Total seconds in IPOPT                               = 9.523

EXIT: Converged to a point of local infeasibility. Problem may be infeasible.
